60
65
76
75
0
140
194
134
255
399
57
58
50
53
78
53
943
567
80
70
180
97
75
68
105
75
84
109
131
76
92
61
89
167
146
182
126
146
145
35
262
59
112
411
31
34
72
349
244
72
111
30
113
77
102
61
84
63
0
64
60
67
137
86
92
60
80
61
86
91
43
75
53
170
133
171
39
63
90
35
87
41
91
138
66
167
89
44
141
214
167
79
66
88
328
113
594
141
189
101
